; benchmark generated from python API
(set-info :status unknown)
(declare-fun x_epoch () Int)
(declare-fun x_shift_period_170561_epoch () Int)
(declare-fun x_year () Int)
(declare-fun x_month () Int)
(declare-fun x_day () Int)
(declare-fun x_shift_period_170561_year () Int)
(declare-fun x_shift_period_170561_month () Int)
(declare-fun x_shift_period_170561_day () Int)
(declare-fun x_shift_period_177865_epoch () Int)
(declare-fun x_shift_period_177865_year () Int)
(declare-fun x_shift_period_177865_month () Int)
(declare-fun x_shift_period_177865_day () Int)
(assert
 (>= x_epoch (- 36584)))
(assert
 (<= x_epoch 36829))
(assert
 (>= x_epoch 8341))
(assert
 (>= x_shift_period_170561_epoch (- 36584)))
(assert
 (<= x_shift_period_170561_epoch 36829))
(assert
 (let (($x3195 (<= x_year 2100)))
 (let (($x3177 (>= x_year 1900)))
 (let (($x2872 (= x_month 11)))
 (let (($x815 (= x_month 9)))
 (let (($x3917 (= x_month 6)))
 (let (($x376 (= x_month 4)))
 (let ((?x2278 (ite (or $x376 $x3917 $x815 $x2872) 30 31)))
 (let (($x3245 (= (mod x_year 4) 0)))
 (let (($x1838 (= (mod x_year 100) 0)))
 (let (($x1098 (= (mod x_year 400) 0)))
 (let (($x1123 (ite $x1098 true (ite $x1838 false $x3245))))
 (let (($x2885 (= x_month 2)))
 (let ((?x1225 (ite $x2885 (ite $x1123 29 28) ?x2278)))
 (let (($x4162 (>= x_day 1)))
 (let (($x4286 (<= x_month 12)))
 (let (($x948 (>= x_month 1)))
 (and $x948 $x4286 $x4162 (<= x_day ?x1225) $x3177 $x3195))))))))))))))))))
(assert
 (let (($x29 (or (and (= (mod 2000 4) 0) (and (distinct (mod 2000 100) 0) true)) (= (mod 2000 400) 0))))
 (let ((?x36 (ite (= 3 2) (ite $x29 31 31) (ite (= 3 1) (ite $x29 0 0) 0))))
 (let ((?x40 (ite $x29 60 59)))
 (let ((?x41 (ite (= 3 3) ?x40 ?x36)))
 (let ((?x46 (ite (= 3 4) (ite $x29 91 90) ?x41)))
 (let ((?x52 (ite (= 3 5) (ite $x29 121 120) ?x46)))
 (let ((?x58 (ite (= 3 6) (ite $x29 152 151) ?x52)))
 (let ((?x64 (ite (= 3 7) (ite $x29 182 181) ?x58)))
 (let ((?x70 (ite (= 3 8) (ite $x29 213 212) ?x64)))
 (let ((?x76 (ite (= 3 9) (ite $x29 244 243) ?x70)))
 (let ((?x82 (ite (= 3 10) (ite $x29 274 273) ?x76)))
 (let ((?x88 (ite (= 3 11) (ite $x29 305 304) ?x82)))
 (let ((?x16 (- (+ (* 365 (- 2000 1)) (div (- 2000 1) 4)) (div (- 2000 1) 100))))
 (let ((?x95 (+ (+ ?x16 (div (- 2000 1) 400)) (ite (= 3 12) (ite $x29 335 334) ?x88))))
 (let ((?x97 (+ ?x95 (- 1 1))))
 (let (($x3245 (= (mod x_year 4) 0)))
 (let (($x1838 (= (mod x_year 100) 0)))
 (let (($x1098 (= (mod x_year 400) 0)))
 (let (($x1123 (ite $x1098 true (ite $x1838 false $x3245))))
 (let (($x508 (= 2 x_month)))
 (let ((?x293 (ite $x508 (ite $x1123 31 31) (ite (= 1 x_month) (ite $x1123 0 0) 0))))
 (let (($x467 (= 3 x_month)))
 (let (($x906 (= 4 x_month)))
 (let ((?x2351 (ite $x906 (ite $x1123 91 90) (ite $x467 (ite $x1123 60 59) ?x293))))
 (let (($x3816 (= 5 x_month)))
 (let (($x3012 (= 6 x_month)))
 (let ((?x897 (ite $x3012 (ite $x1123 152 151) (ite $x3816 (ite $x1123 121 120) ?x2351))))
 (let (($x1091 (= 7 x_month)))
 (let (($x1249 (= 8 x_month)))
 (let ((?x2575 (ite $x1249 (ite $x1123 213 212) (ite $x1091 (ite $x1123 182 181) ?x897))))
 (let (($x702 (= 9 x_month)))
 (let (($x3233 (= 10 x_month)))
 (let ((?x2065 (ite $x3233 (ite $x1123 274 273) (ite $x702 (ite $x1123 244 243) ?x2575))))
 (let (($x4166 (= 11 x_month)))
 (let (($x556 (= 12 x_month)))
 (let ((?x2109 (ite $x556 (ite $x1123 335 334) (ite $x4166 (ite $x1123 305 304) ?x2065))))
 (let ((?x545 (- (+ (* 365 (- x_year 1)) (div (- x_year 1) 4)) (div (- x_year 1) 100))))
 (let ((?x1789 (+ (+ (+ ?x545 (div (- x_year 1) 400)) ?x2109) (- x_day 1))))
 (= x_epoch (- ?x1789 ?x97)))))))))))))))))))))))))))))))))))))))))
(assert
 (let (($x3473 (<= x_shift_period_170561_year 2100)))
 (let (($x366 (>= x_shift_period_170561_year 1900)))
 (let (($x548 (= x_shift_period_170561_month 11)))
 (let (($x5258 (= x_shift_period_170561_month 9)))
 (let (($x2698 (= x_shift_period_170561_month 6)))
 (let (($x3974 (= x_shift_period_170561_month 4)))
 (let ((?x3427 (ite (or $x3974 $x2698 $x5258 $x548) 30 31)))
 (let (($x5027 (= (mod x_shift_period_170561_year 4) 0)))
 (let (($x4605 (= (mod x_shift_period_170561_year 100) 0)))
 (let (($x5506 (= (mod x_shift_period_170561_year 400) 0)))
 (let (($x1651 (ite $x5506 true (ite $x4605 false $x5027))))
 (let (($x1126 (= x_shift_period_170561_month 2)))
 (let (($x520 (>= x_shift_period_170561_day 1)))
 (let (($x4434 (<= x_shift_period_170561_month 12)))
 (let (($x5408 (>= x_shift_period_170561_month 1)))
 (and $x5408 $x4434 $x520 (<= x_shift_period_170561_day (ite $x1126 (ite $x1651 29 28) ?x3427)) $x366 $x3473)))))))))))))))))
(assert
 (let (($x29 (or (and (= (mod 2000 4) 0) (and (distinct (mod 2000 100) 0) true)) (= (mod 2000 400) 0))))
 (let ((?x36 (ite (= 3 2) (ite $x29 31 31) (ite (= 3 1) (ite $x29 0 0) 0))))
 (let ((?x40 (ite $x29 60 59)))
 (let ((?x41 (ite (= 3 3) ?x40 ?x36)))
 (let ((?x46 (ite (= 3 4) (ite $x29 91 90) ?x41)))
 (let ((?x52 (ite (= 3 5) (ite $x29 121 120) ?x46)))
 (let ((?x58 (ite (= 3 6) (ite $x29 152 151) ?x52)))
 (let ((?x64 (ite (= 3 7) (ite $x29 182 181) ?x58)))
 (let ((?x70 (ite (= 3 8) (ite $x29 213 212) ?x64)))
 (let ((?x76 (ite (= 3 9) (ite $x29 244 243) ?x70)))
 (let ((?x82 (ite (= 3 10) (ite $x29 274 273) ?x76)))
 (let ((?x88 (ite (= 3 11) (ite $x29 305 304) ?x82)))
 (let ((?x16 (- (+ (* 365 (- 2000 1)) (div (- 2000 1) 4)) (div (- 2000 1) 100))))
 (let ((?x95 (+ (+ ?x16 (div (- 2000 1) 400)) (ite (= 3 12) (ite $x29 335 334) ?x88))))
 (let ((?x97 (+ ?x95 (- 1 1))))
 (let (($x5027 (= (mod x_shift_period_170561_year 4) 0)))
 (let (($x4605 (= (mod x_shift_period_170561_year 100) 0)))
 (let (($x5506 (= (mod x_shift_period_170561_year 400) 0)))
 (let (($x1651 (ite $x5506 true (ite $x4605 false $x5027))))
 (let ((?x4415 (ite (= 1 x_shift_period_170561_month) (ite $x1651 0 0) 0)))
 (let ((?x1934 (ite (= 3 x_shift_period_170561_month) (ite $x1651 60 59) (ite (= 2 x_shift_period_170561_month) (ite $x1651 31 31) ?x4415))))
 (let ((?x4014 (ite (= 5 x_shift_period_170561_month) (ite $x1651 121 120) (ite (= 4 x_shift_period_170561_month) (ite $x1651 91 90) ?x1934))))
 (let ((?x4920 (ite (= 7 x_shift_period_170561_month) (ite $x1651 182 181) (ite (= 6 x_shift_period_170561_month) (ite $x1651 152 151) ?x4014))))
 (let ((?x3657 (ite (= 9 x_shift_period_170561_month) (ite $x1651 244 243) (ite (= 8 x_shift_period_170561_month) (ite $x1651 213 212) ?x4920))))
 (let ((?x1696 (ite (= 11 x_shift_period_170561_month) (ite $x1651 305 304) (ite (= 10 x_shift_period_170561_month) (ite $x1651 274 273) ?x3657))))
 (let ((?x3592 (+ (* 365 (- x_shift_period_170561_year 1)) (div (- x_shift_period_170561_year 1) 4))))
 (let ((?x3125 (+ (- ?x3592 (div (- x_shift_period_170561_year 1) 100)) (div (- x_shift_period_170561_year 1) 400))))
 (let ((?x148 (+ ?x3125 (ite (= 12 x_shift_period_170561_month) (ite $x1651 335 334) ?x1696))))
 (= x_shift_period_170561_epoch (- (+ ?x148 (- x_shift_period_170561_day 1)) ?x97)))))))))))))))))))))))))))))))
(assert
 (let ((?x2644 (* 12 x_year)))
 (let ((?x5020 (+ ?x2644 (- x_month 1))))
 (let ((?x5138 (+ ?x5020 1)))
 (let ((?x494 (div ?x5138 12)))
 (= x_shift_period_170561_year ?x494))))))
(assert
 (let ((?x1844 (+ (mod (+ (+ (* 12 x_year) (- x_month 1)) 1) 12) 1)))
 (= x_shift_period_170561_month ?x1844)))
(assert
 (let ((?x1844 (+ (mod (+ (+ (* 12 x_year) (- x_month 1)) 1) 12) 1)))
 (let ((?x3503 (ite (or (= ?x1844 4) (= ?x1844 6) (= ?x1844 9) (= ?x1844 11)) 30 31)))
 (let ((?x2644 (* 12 x_year)))
 (let ((?x5020 (+ ?x2644 (- x_month 1))))
 (let ((?x5138 (+ ?x5020 1)))
 (let ((?x494 (div ?x5138 12)))
 (let (($x5032 (ite (= (mod ?x494 400) 0) true (ite (= (mod ?x494 100) 0) false (= (mod ?x494 4) 0)))))
 (let ((?x3000 (ite (= ?x1844 2) (ite $x5032 29 28) ?x3503)))
 (let ((?x4907 (ite (<= x_day ?x3000) x_day ?x3000)))
 (let (($x2872 (= x_month 11)))
 (let (($x815 (= x_month 9)))
 (let (($x3917 (= x_month 6)))
 (let (($x376 (= x_month 4)))
 (let ((?x2278 (ite (or $x376 $x3917 $x815 $x2872) 30 31)))
 (let (($x3245 (= (mod x_year 4) 0)))
 (let (($x1838 (= (mod x_year 100) 0)))
 (let (($x1098 (= (mod x_year 400) 0)))
 (let (($x1123 (ite $x1098 true (ite $x1838 false $x3245))))
 (let (($x2885 (= x_month 2)))
 (let ((?x1225 (ite $x2885 (ite $x1123 29 28) ?x2278)))
 (let (($x1856 (= x_day ?x1225)))
 (let ((?x5129 (ite false (ite $x1856 ?x3000 ?x4907) ?x4907)))
 (= x_shift_period_170561_day ?x5129))))))))))))))))))))))))
(assert
 (>= x_shift_period_177865_epoch (- 36584)))
(assert
 (<= x_shift_period_177865_epoch 36829))
(assert
 (let (($x3998 (<= x_shift_period_177865_year 2100)))
 (let (($x524 (>= x_shift_period_177865_year 1900)))
 (let (($x1409 (= x_shift_period_177865_month 11)))
 (let (($x3286 (= x_shift_period_177865_month 9)))
 (let (($x4516 (= x_shift_period_177865_month 6)))
 (let (($x4458 (= x_shift_period_177865_month 4)))
 (let ((?x5247 (ite (or $x4458 $x4516 $x3286 $x1409) 30 31)))
 (let (($x5418 (= (mod x_shift_period_177865_year 4) 0)))
 (let (($x4238 (= (mod x_shift_period_177865_year 100) 0)))
 (let (($x152 (= (mod x_shift_period_177865_year 400) 0)))
 (let (($x4618 (ite $x152 true (ite $x4238 false $x5418))))
 (let (($x1907 (= x_shift_period_177865_month 2)))
 (let (($x2675 (>= x_shift_period_177865_day 1)))
 (let (($x5101 (<= x_shift_period_177865_month 12)))
 (let (($x4169 (>= x_shift_period_177865_month 1)))
 (and $x4169 $x5101 $x2675 (<= x_shift_period_177865_day (ite $x1907 (ite $x4618 29 28) ?x5247)) $x524 $x3998)))))))))))))))))
(assert
 (let (($x29 (or (and (= (mod 2000 4) 0) (and (distinct (mod 2000 100) 0) true)) (= (mod 2000 400) 0))))
 (let ((?x36 (ite (= 3 2) (ite $x29 31 31) (ite (= 3 1) (ite $x29 0 0) 0))))
 (let ((?x40 (ite $x29 60 59)))
 (let ((?x41 (ite (= 3 3) ?x40 ?x36)))
 (let ((?x46 (ite (= 3 4) (ite $x29 91 90) ?x41)))
 (let ((?x52 (ite (= 3 5) (ite $x29 121 120) ?x46)))
 (let ((?x58 (ite (= 3 6) (ite $x29 152 151) ?x52)))
 (let ((?x64 (ite (= 3 7) (ite $x29 182 181) ?x58)))
 (let ((?x70 (ite (= 3 8) (ite $x29 213 212) ?x64)))
 (let ((?x76 (ite (= 3 9) (ite $x29 244 243) ?x70)))
 (let ((?x82 (ite (= 3 10) (ite $x29 274 273) ?x76)))
 (let ((?x88 (ite (= 3 11) (ite $x29 305 304) ?x82)))
 (let ((?x16 (- (+ (* 365 (- 2000 1)) (div (- 2000 1) 4)) (div (- 2000 1) 100))))
 (let ((?x95 (+ (+ ?x16 (div (- 2000 1) 400)) (ite (= 3 12) (ite $x29 335 334) ?x88))))
 (let ((?x97 (+ ?x95 (- 1 1))))
 (let (($x5418 (= (mod x_shift_period_177865_year 4) 0)))
 (let (($x4238 (= (mod x_shift_period_177865_year 100) 0)))
 (let (($x152 (= (mod x_shift_period_177865_year 400) 0)))
 (let (($x4618 (ite $x152 true (ite $x4238 false $x5418))))
 (let ((?x2346 (ite (= 1 x_shift_period_177865_month) (ite $x4618 0 0) 0)))
 (let ((?x4770 (ite (= 3 x_shift_period_177865_month) (ite $x4618 60 59) (ite (= 2 x_shift_period_177865_month) (ite $x4618 31 31) ?x2346))))
 (let ((?x327 (ite (= 5 x_shift_period_177865_month) (ite $x4618 121 120) (ite (= 4 x_shift_period_177865_month) (ite $x4618 91 90) ?x4770))))
 (let ((?x2761 (ite (= 7 x_shift_period_177865_month) (ite $x4618 182 181) (ite (= 6 x_shift_period_177865_month) (ite $x4618 152 151) ?x327))))
 (let ((?x4980 (ite (= 9 x_shift_period_177865_month) (ite $x4618 244 243) (ite (= 8 x_shift_period_177865_month) (ite $x4618 213 212) ?x2761))))
 (let ((?x2228 (ite (= 11 x_shift_period_177865_month) (ite $x4618 305 304) (ite (= 10 x_shift_period_177865_month) (ite $x4618 274 273) ?x4980))))
 (let ((?x1016 (+ (* 365 (- x_shift_period_177865_year 1)) (div (- x_shift_period_177865_year 1) 4))))
 (let ((?x111 (+ (- ?x1016 (div (- x_shift_period_177865_year 1) 100)) (div (- x_shift_period_177865_year 1) 400))))
 (let ((?x5228 (+ ?x111 (ite (= 12 x_shift_period_177865_month) (ite $x4618 335 334) ?x2228))))
 (= x_shift_period_177865_epoch (- (+ ?x5228 (- x_shift_period_177865_day 1)) ?x97)))))))))))))))))))))))))))))))
(assert
 (= x_shift_period_177865_epoch (+ x_epoch 31)))
(assert
 (> x_shift_period_170561_epoch x_shift_period_177865_epoch))
(check-sat)
